(set-logic QF_S)
(declare-fun var_0xINPUT_55421 () String)
(assert (and (= (len var_0xINPUT_55421) 0) (= (len var_0xINPUT_55421) 0) (not (= var_0xINPUT_55421 "pVEECEXk2p"))))
(check-sat var_0xINPUT_55421)